NAME: instance_1307
TYPE: TSP
DIMENSION: 20
EDGE_WEIGHT_TYPE: EUC_2D
NODE_COORD_SECTION
0 18.53 69.99
1 84.86 94.66
2 17.84 47.55
3 27.57 74.77
4 0.21 29.88
5 62.35 67.23
6 75.21 47.82
7 55.00 46.35
8 98.67 36.71
9 18.24 34.01
10 20.12 23.60
11 88.55 48.63
12 13.01 96.16
13 2.92 42.85
14 20.07 1.65
15 16.17 19.73
16 77.31 98.86
17 69.80 9.52
18 41.94 87.31
19 21.07 8.99
EOF
